(set-logic QF_S)
(declare-fun var0 () String)
(assert (RegexIn var0 (RegexConcat (RegexPlus (RegexStar (Str2Reg "00"))) (RegexConcat (RegexUnion (RegexStar (Str2Reg "11")) (RegexStar (Str2Reg "2"))) (RegexConcat (RegexUnion (RegexPlus (Str2Reg "33")) (RegexPlus (Str2Reg "444"))) (RegexConcat (RegexUnion (RegexPlus (Str2Reg "55")) (RegexPlus (Str2Reg "666"))) (RegexConcat (RegexStar (RegexStar (Str2Reg "777"))) (RegexConcat (RegexStar (RegexUnion (Str2Reg "8") (Str2Reg "999"))) (RegexConcat (RegexUnion (RegexPlus (Str2Reg "aa")) (RegexPlus (Str2Reg "bb"))) (RegexConcat (RegexUnion (RegexStar (Str2Reg "c")) (RegexStar (Str2Reg "d"))) (RegexConcat (RegexUnion (RegexStar (Str2Reg "ee")) (RegexStar (Str2Reg "f"))) (RegexConcat (RegexPlus (RegexPlus (Str2Reg "ggg"))) (RegexConcat (RegexStar (RegexUnion (Str2Reg "hhh") (Str2Reg "iii"))) (RegexConcat (RegexStar (RegexUnion (Str2Reg "j") (Str2Reg "k"))) (RegexConcat (RegexStar (RegexStar (Str2Reg "lll"))) (RegexConcat (RegexStar (RegexPlus (Str2Reg "m"))) (RegexConcat (RegexUnion (RegexUnion (Str2Reg "n") (Str2Reg "ooo")) (RegexUnion (Str2Reg "p") (Str2Reg "qq"))) (RegexConcat (RegexStar (RegexUnion (Str2Reg "rrr") (Str2Reg "ss"))) (RegexConcat (RegexPlus (RegexUnion (Str2Reg "t") (Str2Reg "uu"))) (RegexConcat (RegexUnion (RegexUnion (Str2Reg "vv") (Str2Reg "www")) (RegexUnion (Str2Reg "x") (Str2Reg "y"))) (RegexConcat (RegexUnion (RegexUnion (Str2Reg "z") (Str2Reg "AAA")) (RegexUnion (Str2Reg "BBB") (Str2Reg "CCC"))) (RegexConcat (RegexUnion (RegexPlus (Str2Reg "DDD")) (RegexPlus (Str2Reg "EEE"))) (RegexConcat (RegexUnion (RegexUnion (Str2Reg "FFF") (Str2Reg "G")) (RegexUnion (Str2Reg "H") (Str2Reg "III"))) (RegexConcat (RegexPlus (RegexPlus (Str2Reg "JJ"))) (RegexConcat (RegexStar (RegexUnion (Str2Reg "KK") (Str2Reg "LL"))) (RegexConcat (RegexStar (RegexPlus (Str2Reg "MM"))) (RegexConcat (RegexUnion (RegexUnion (Str2Reg "NNN") (Str2Reg "OO")) (RegexUnion (Str2Reg "PPP") (Str2Reg "QQ"))) (RegexConcat (RegexPlus (RegexPlus (Str2Reg "R"))) (RegexConcat (RegexUnion (RegexStar (Str2Reg "SSS")) (RegexStar (Str2Reg "TT"))) (RegexConcat (RegexStar (RegexPlus (Str2Reg "U"))) (RegexConcat (RegexPlus (RegexUnion (Str2Reg "V") (Str2Reg "WWW"))) (RegexConcat (RegexStar (RegexUnion (Str2Reg "X") (Str2Reg "YYY"))) (RegexConcat (RegexPlus (RegexPlus (Str2Reg "Z"))) (RegexConcat (RegexUnion (RegexUnion (Str2Reg "!!") (Str2Reg "\"")) (RegexUnion (Str2Reg "##") (Str2Reg "$$$"))) (RegexConcat (RegexUnion (RegexPlus (Str2Reg "%%")) (RegexPlus (Str2Reg "&&&"))) (RegexConcat (RegexUnion (RegexUnion (Str2Reg "'''") (Str2Reg "((")) (RegexUnion (Str2Reg "))") (Str2Reg "**"))) (RegexConcat (RegexStar (RegexPlus (Str2Reg "+"))) (RegexPlus (RegexUnion (Str2Reg ",,") (Str2Reg "-"))))))))))))))))))))))))))))))))))))))))
(check-sat)